NAME : amz1675.143520_143520.tour
COMMENT : Cost = 143520_143520
COMMENT : Found by LKH-AMZ [Keld Helsgaun] Sun May 11 14:58:02 2025
COMMENT : TW viol.: 0 #: 0
TYPE : TOUR
DIMENSION : 153
TOUR_SECTION
107
53
105
77
130
103
116
149
120
121
113
51
100
128
4
147
37
140
94
133
43
99
135
110
18
87
15
75
81
142
30
67
111
38
46
117
106
108
76
101
22
84
50
150
20
127
144
151
55
16
58
152
6
96
97
109
63
21
39
137
93
61
98
9
12
47
49
7
141
66
126
115
35
73
40
118
64
71
132
136
82
26
89
28
62
10
119
112
95
48
92
114
138
57
78
68
83
59
34
79
70
52
85
74
134
25
125
41
60
65
33
86
54
69
11
139
44
145
90
45
129
23
31
131
14
104
91
29
3
8
123
1
72
19
17
124
143
56
5
148
122
146
32
88
42
24
80
27
153
13
36
2
102
-1
EOF
